c Generated map
c Size: 9 * 9, weights in range: 1 to 10, walls: True, with ratio 0.1
c dim 7 of 8
c
p sp 81 114
c graph contains 81 nodes and 114 arcs
c
a 1 10 4
a 10 1 4
a 1 2 7
a 2 1 7
a 2 3 1
a 3 2 1
a 3 12 7
a 12 3 7
a 3 4 4
a 4 3 4
a 4 13 4
a 13 4 4
a 4 5 6
a 5 4 6
a 5 14 1
a 14 5 1
a 5 6 2
a 6 5 2
a 6 15 3
a 15 6 3
a 6 7 3
a 7 6 3
a 7 16 2
a 16 7 2
a 7 8 1
a 8 7 1
a 8 17 3
a 17 8 3
a 8 9 5
a 9 8 5
a 9 18 7
a 18 9 7
a 12 21 9
a 21 12 9
a 12 13 6
a 13 12 6
a 13 22 4
a 22 13 4
a 13 14 10
a 14 13 10
a 14 23 9
a 23 14 9
a 14 15 10
a 15 14 10
a 15 16 5
a 16 15 5
a 16 25 3
a 25 16 3
a 16 17 6
a 17 16 6
a 17 26 10
a 26 17 10
a 17 18 7
a 18 17 7
a 18 27 8
a 27 18 8
a 20 29 9
a 29 20 9
a 20 21 8
a 21 20 8
a 21 30 1
a 30 21 1
a 21 22 3
a 22 21 3
a 22 31 4
a 31 22 4
a 22 23 1
a 23 22 1
a 23 32 6
a 32 23 6
a 25 34 4
a 34 25 4
a 25 26 1
a 26 25 1
a 26 35 3
a 35 26 3
a 26 27 9
a 27 26 9
a 27 36 8
a 36 27 8
a 28 37 7
a 37 28 7
a 28 29 6
a 29 28 6
a 29 38 10
a 38 29 10
a 29 30 1
a 30 29 1
a 30 39 3
a 39 30 3
a 30 31 10
a 31 30 10
a 31 32 2
a 32 31 2
a 32 41 4
a 41 32 4
a 32 33 8
a 33 32 8
a 33 42 8
a 42 33 8
a 33 34 7
a 34 33 7
a 34 43 7
a 43 34 7
a 34 35 10
a 35 34 10
a 35 44 1
a 44 35 1
a 35 36 10
a 36 35 10
a 36 45 9
a 45 36 9
a 37 46 7
a 46 37 7
a 37 38 2
a 38 37 2
a 38 39 9
a 39 38 9
a 39 48 3
a 48 39 3
a 41 50 2
a 50 41 2
a 41 42 5
a 42 41 5
a 42 51 1
a 51 42 1
a 42 43 6
a 43 42 6
a 43 52 1
a 52 43 1
a 43 44 9
a 44 43 9
a 44 53 6
a 53 44 6
a 44 45 6
a 45 44 6
a 45 54 1
a 54 45 1
a 46 55 7
a 55 46 7
a 48 57 6
a 57 48 6
a 48 49 5
a 49 48 5
a 49 58 1
a 58 49 1
a 49 50 3
a 50 49 3
a 50 59 10
a 59 50 10
a 50 51 3
a 51 50 3
a 51 60 9
a 60 51 9
a 51 52 1
a 52 51 1
a 52 61 6
a 61 52 6
a 52 53 6
a 53 52 6
a 53 62 4
a 62 53 4
a 53 54 4
a 54 53 4
a 54 63 3
a 63 54 3
a 55 64 6
a 64 55 6
a 55 56 5
a 56 55 5
a 56 65 2
a 65 56 2
a 56 57 8
a 57 56 8
a 57 58 4
a 58 57 4
a 58 67 7
a 67 58 7
a 58 59 5
a 59 58 5
a 59 60 1
a 60 59 1
a 60 69 3
a 69 60 3
a 60 61 9
a 61 60 9
a 61 70 8
a 70 61 8
a 61 62 9
a 62 61 9
a 62 71 2
a 71 62 2
a 62 63 10
a 63 62 10
a 63 72 10
a 72 63 10
a 64 73 1
a 73 64 1
a 64 65 9
a 65 64 9
a 65 74 9
a 74 65 9
a 69 78 8
a 78 69 8
a 69 70 9
a 70 69 9
a 70 79 1
a 79 70 1
a 70 71 6
a 71 70 6
a 71 80 1
a 80 71 1
a 71 72 7
a 72 71 7
a 72 81 5
a 81 72 5
a 73 74 10
a 74 73 10
a 74 75 1
a 75 74 1
a 77 78 6
a 78 77 6
a 78 79 3
a 79 78 3
a 79 80 4
a 80 79 4
a 80 81 1
a 81 80 1
